
Gurobi 8.1.1 (win64, Python) logging started 08/22/19 19:15:18

Academic license - for non-commercial use only

Gurobi 8.1.1 (win64, Python) logging started 08/22/19 19:16:42

Academic license - for non-commercial use only

Gurobi 8.1.1 (win64, Python) logging started 08/22/19 19:18:08

Academic license - for non-commercial use only

Gurobi 8.1.1 (win64, Python) logging started 08/22/19 19:18:48

Academic license - for non-commercial use only

Gurobi 8.1.1 (win64, Python) logging started 08/22/19 19:21:14

Academic license - for non-commercial use only

Gurobi 8.1.1 (win64, Python) logging started 08/22/19 19:22:35

Academic license - for non-commercial use only

Gurobi 8.1.1 (win64, Python) logging started 08/22/19 19:23:05

Academic license - for non-commercial use only

Gurobi 8.1.1 (win64, Python) logging started 08/22/19 19:23:25

Academic license - for non-commercial use only

Gurobi 8.1.1 (win64, Python) logging started 08/22/19 19:23:40

Academic license - for non-commercial use only

Gurobi 8.1.1 (win64, Python) logging started 08/22/19 19:24:08

Academic license - for non-commercial use only

Gurobi 8.1.1 (win64, Python) logging started 08/22/19 19:24:38

Academic license - for non-commercial use only

Gurobi 8.1.1 (win64, Python) logging started 08/22/19 19:25:34

Academic license - for non-commercial use only

Gurobi 8.1.1 (win64, Python) logging started 08/22/19 19:26:37

Academic license - for non-commercial use only

Gurobi 8.1.1 (win64, Python) logging started 08/22/19 19:28:24

Academic license - for non-commercial use only

Gurobi 8.1.1 (win64, Python) logging started 08/22/19 19:28:40

Academic license - for non-commercial use only

Gurobi 8.1.1 (win64, Python) logging started 08/22/19 19:31:26

Academic license - for non-commercial use only

Gurobi 8.1.1 (win64, Python) logging started 08/22/19 19:31:42

Academic license - for non-commercial use only

Gurobi 8.1.1 (win64, Python) logging started 08/22/19 20:37:35

Academic license - for non-commercial use only

Gurobi 8.1.1 (win64, Python) logging started 08/22/19 20:41:35

Academic license - for non-commercial use only

Gurobi 8.1.1 (win64, Python) logging started 08/22/19 20:43:54

Academic license - for non-commercial use only

Gurobi 8.1.1 (win64, Python) logging started 08/22/19 20:46:08

Academic license - for non-commercial use only

Gurobi 8.1.1 (win64, Python) logging started 08/22/19 20:46:16

Academic license - for non-commercial use only

Gurobi 8.1.1 (win64, Python) logging started 08/22/19 20:46:48

Academic license - for non-commercial use only

Gurobi 8.1.1 (win64, Python) logging started 08/22/19 20:55:02

Academic license - for non-commercial use only

Gurobi 8.1.1 (win64, Python) logging started 08/22/19 21:06:08

Academic license - for non-commercial use only

Gurobi 8.1.1 (win64, Python) logging started 08/22/19 22:08:14

Academic license - for non-commercial use only

Gurobi 8.1.1 (win64, Python) logging started 08/22/19 22:09:34

Academic license - for non-commercial use only

Gurobi 8.1.1 (win64, Python) logging started 08/22/19 22:09:53

Academic license - for non-commercial use only

Gurobi 8.1.1 (win64, Python) logging started 08/22/19 22:11:57

Academic license - for non-commercial use only

Gurobi 8.1.1 (win64, Python) logging started 08/22/19 22:12:22

Academic license - for non-commercial use only

Gurobi 8.1.1 (win64, Python) logging started 08/22/19 22:12:45

Academic license - for non-commercial use only

Gurobi 8.1.1 (win64, Python) logging started 08/22/19 22:15:17

Academic license - for non-commercial use only

Gurobi 8.1.1 (win64, Python) logging started 08/22/19 22:15:52

Academic license - for non-commercial use only

Gurobi 8.1.1 (win64, Python) logging started 08/22/19 22:17:04

Academic license - for non-commercial use only

Gurobi 8.1.1 (win64, Python) logging started 08/22/19 22:17:17

Academic license - for non-commercial use only

Gurobi 8.1.1 (win64, Python) logging started 08/22/19 22:17:24

Academic license - for non-commercial use only

Gurobi 8.1.1 (win64, Python) logging started 08/22/19 22:17:43

Academic license - for non-commercial use only

Gurobi 8.1.1 (win64, Python) logging started 08/22/19 22:21:43

Academic license - for non-commercial use only

Gurobi 8.1.1 (win64, Python) logging started 08/22/19 22:22:04

Academic license - for non-commercial use only

Gurobi 8.1.1 (win64, Python) logging started 08/22/19 22:22:15

Academic license - for non-commercial use only

Gurobi 8.1.1 (win64, Python) logging started 08/22/19 22:26:01

Academic license - for non-commercial use only

Gurobi 8.1.1 (win64, Python) logging started 08/22/19 22:28:32

Academic license - for non-commercial use only

Gurobi 8.1.1 (win64, Python) logging started 08/22/19 22:31:21

Academic license - for non-commercial use only

Gurobi 8.1.1 (win64, Python) logging started 08/22/19 22:31:40

Academic license - for non-commercial use only

Gurobi 8.1.1 (win64, Python) logging started 08/23/19 20:58:06

Academic license - for non-commercial use only

Gurobi 8.1.1 (win64, Python) logging started 08/23/19 22:47:07

Academic license - for non-commercial use only

Gurobi 8.1.1 (win64, Python) logging started 08/23/19 22:47:11

Academic license - for non-commercial use only

Gurobi 8.1.1 (win64, Python) logging started 08/23/19 22:47:30

Academic license - for non-commercial use only

Gurobi 8.1.1 (win64, Python) logging started 08/27/19 22:12:50

Academic license - for non-commercial use only

Gurobi 8.1.1 (win64, Python) logging started 08/27/19 22:21:56

Academic license - for non-commercial use only

Gurobi 8.1.1 (win64, Python) logging started 08/27/19 22:22:14

Academic license - for non-commercial use only

Gurobi 8.1.1 (win64, Python) logging started 08/27/19 22:23:20

Academic license - for non-commercial use only

Gurobi 8.1.1 (win64, Python) logging started 08/27/19 22:28:00

Academic license - for non-commercial use only

Gurobi 8.1.1 (win64, Python) logging started 08/27/19 22:34:44

Academic license - for non-commercial use only

Gurobi 8.1.1 (win64, Python) logging started 08/27/19 22:35:21

Academic license - for non-commercial use only

Gurobi 8.1.1 (win64, Python) logging started 08/27/19 22:35:56

Academic license - for non-commercial use only

Gurobi 8.1.1 (win64, Python) logging started 08/27/19 22:36:07

Academic license - for non-commercial use only

Gurobi 8.1.1 (win64, Python) logging started 08/27/19 22:36:18

Academic license - for non-commercial use only

Gurobi 8.1.1 (win64, Python) logging started 08/27/19 22:37:06

Academic license - for non-commercial use only

Gurobi 8.1.1 (win64, Python) logging started 08/27/19 22:37:22

Academic license - for non-commercial use only

Gurobi 8.1.1 (win64, Python) logging started 08/27/19 22:37:43

Academic license - for non-commercial use only

Gurobi 8.1.1 (win64, Python) logging started 08/27/19 22:37:54

Academic license - for non-commercial use only

Gurobi 8.1.1 (win64, Python) logging started 09/04/19 09:05:28

Academic license - for non-commercial use only

Gurobi 8.1.1 (win64, Python) logging started 10/28/19 08:05:04

Academic license - for non-commercial use only

Gurobi 8.1.1 (win64, Python) logging started 10/28/19 08:08:33

Academic license - for non-commercial use only

Gurobi 8.1.1 (win64, Python) logging started 10/28/19 08:11:02

Academic license - for non-commercial use only

Gurobi 8.1.1 (win64, Python) logging started 10/28/19 08:11:54

Academic license - for non-commercial use only

Gurobi 8.1.1 (win64, Python) logging started 10/28/19 08:16:33

Academic license - for non-commercial use only

Gurobi 8.1.1 (win64, Python) logging started 10/28/19 08:19:10

Academic license - for non-commercial use only

Gurobi 8.1.1 (win64, Python) logging started 10/28/19 08:20:25

Academic license - for non-commercial use only

Gurobi 8.1.1 (win64, Python) logging started 10/28/19 08:23:17

Academic license - for non-commercial use only

Gurobi 8.1.1 (win64, Python) logging started 10/28/19 08:29:24

Academic license - for non-commercial use only

Gurobi 8.1.1 (win64, Python) logging started 10/28/19 08:31:00

Academic license - for non-commercial use only

Gurobi 8.1.1 (win64, Python) logging started 10/28/19 08:39:33

Academic license - for non-commercial use only

Gurobi 8.1.1 (win64, Python) logging started 10/28/19 08:42:59

Academic license - for non-commercial use only

Gurobi 8.1.1 (win64, Python) logging started 10/28/19 08:46:27

Academic license - for non-commercial use only

Gurobi 8.1.1 (win64, Python) logging started 10/28/19 08:47:53

Academic license - for non-commercial use only

Gurobi 8.1.1 (win64, Python) logging started 10/28/19 09:46:36

Academic license - for non-commercial use only

Gurobi 8.1.1 (win64, Python) logging started 10/28/19 09:48:12

Academic license - for non-commercial use only

Gurobi 8.1.1 (win64, Python) logging started 10/28/19 09:52:15

Academic license - for non-commercial use only

Gurobi 8.1.1 (win64, Python) logging started 10/30/19 15:54:24

Academic license - for non-commercial use only

Gurobi 8.1.1 (win64, Python) logging started 10/30/19 15:56:55

Academic license - for non-commercial use only

Gurobi 8.1.1 (win64, Python) logging started 10/30/19 15:57:16

Academic license - for non-commercial use only

Gurobi 8.1.1 (win64, Python) logging started 10/30/19 16:00:27

Academic license - for non-commercial use only

Gurobi 8.1.1 (win64, Python) logging started 10/30/19 16:53:36

Academic license - for non-commercial use only

Gurobi 8.1.1 (win64, Python) logging started 10/30/19 16:55:00

Academic license - for non-commercial use only

Gurobi 8.1.1 (win64, Python) logging started 10/30/19 17:06:12

Academic license - for non-commercial use only

Gurobi 8.1.1 (win64, Python) logging started 10/30/19 17:09:46

Academic license - for non-commercial use only

Gurobi 8.1.1 (win64, Python) logging started 10/30/19 17:34:48

Academic license - for non-commercial use only

Gurobi 8.1.1 (win64, Python) logging started 10/30/19 17:42:52

Academic license - for non-commercial use only

Gurobi 8.1.1 (win64, Python) logging started 10/30/19 17:48:04

Academic license - for non-commercial use only

Gurobi 8.1.1 (win64, Python) logging started 10/30/19 17:50:10

Academic license - for non-commercial use only

Gurobi 8.1.1 (win64, Python) logging started 10/30/19 17:55:30

Academic license - for non-commercial use only

Gurobi 8.1.1 (win64, Python) logging started 10/31/19 22:50:48

Academic license - for non-commercial use only

Gurobi 8.1.1 (win64, Python) logging started 10/31/19 22:54:22

Academic license - for non-commercial use only

Gurobi 8.1.1 (win64, Python) logging started 10/31/19 22:55:21

Academic license - for non-commercial use only

Gurobi 8.1.1 (win64, Python) logging started 10/31/19 22:56:07

Academic license - for non-commercial use only

Gurobi 8.1.1 (win64, Python) logging started 10/31/19 22:57:57

Academic license - for non-commercial use only

Gurobi 8.1.1 (win64, Python) logging started 10/31/19 22:59:24

Academic license - for non-commercial use only

Gurobi 8.1.1 (win64, Python) logging started 10/31/19 23:00:02

Academic license - for non-commercial use only

Gurobi 8.1.1 (win64, Python) logging started 10/31/19 23:03:36

Academic license - for non-commercial use only

Gurobi 8.1.1 (win64, Python) logging started 10/31/19 23:07:58

Academic license - for non-commercial use only

Gurobi 8.1.1 (win64, Python) logging started 10/31/19 23:15:10

Academic license - for non-commercial use only

Gurobi 8.1.1 (win64, Python) logging started 10/31/19 23:19:41

Academic license - for non-commercial use only

Gurobi 8.1.1 (win64, Python) logging started 10/31/19 23:20:50

Academic license - for non-commercial use only

Gurobi 8.1.1 (win64, Python) logging started 11/01/19 08:25:11

Academic license - for non-commercial use only

Gurobi 8.1.1 (win64, Python) logging started 11/01/19 08:30:49

Academic license - for non-commercial use only

Gurobi 8.1.1 (win64, Python) logging started 11/01/19 08:32:12

Academic license - for non-commercial use only

Gurobi 8.1.1 (win64, Python) logging started 11/01/19 08:32:23

Academic license - for non-commercial use only

Gurobi 8.1.1 (win64, Python) logging started 11/01/19 09:40:43

Academic license - for non-commercial use only

Gurobi 8.1.1 (win64, Python) logging started 11/05/19 18:20:34

Academic license - for non-commercial use only

Gurobi 8.1.1 (win64, Python) logging started 11/05/19 18:21:00

Academic license - for non-commercial use only

Gurobi 8.1.1 (win64, Python) logging started 11/05/19 18:29:41

Academic license - for non-commercial use only

Gurobi 8.1.1 (win64, Python) logging started 11/05/19 18:29:56

Academic license - for non-commercial use only

Gurobi 8.1.1 (win64, Python) logging started 11/05/19 18:30:27

Academic license - for non-commercial use only

Gurobi 8.1.1 (win64, Python) logging started 11/05/19 18:40:06

Academic license - for non-commercial use only

Gurobi 8.1.1 (win64, Python) logging started 11/10/19 12:22:20

Academic license - for non-commercial use only

Gurobi 8.1.1 (win64, Python) logging started 11/10/19 12:23:09

Academic license - for non-commercial use only

Gurobi 8.1.1 (win64, Python) logging started 11/10/19 12:31:30

Academic license - for non-commercial use only

Gurobi 8.1.1 (win64, Python) logging started 11/10/19 12:39:20

Academic license - for non-commercial use only

Gurobi 8.1.1 (win64, Python) logging started 11/10/19 12:54:06

Academic license - for non-commercial use only

Gurobi 8.1.1 (win64, Python) logging started 11/10/19 12:54:30

Academic license - for non-commercial use only

Gurobi 8.1.1 (win64, Python) logging started 11/10/19 12:55:10

Academic license - for non-commercial use only

Gurobi 8.1.1 (win64, Python) logging started 11/10/19 12:56:53

Academic license - for non-commercial use only

Gurobi 8.1.1 (win64, Python) logging started 11/10/19 12:57:36

Academic license - for non-commercial use only

Gurobi 8.1.1 (win64, Python) logging started 11/10/19 12:58:01

Academic license - for non-commercial use only

Gurobi 8.1.1 (win64, Python) logging started 11/10/19 13:13:51

Academic license - for non-commercial use only

Gurobi 8.1.1 (win64, Python) logging started 11/10/19 17:21:21

Academic license - for non-commercial use only

Gurobi 8.1.1 (win64, Python) logging started 11/10/19 17:28:15

Academic license - for non-commercial use only

Gurobi 8.1.1 (win64, Python) logging started 11/10/19 17:28:51

Academic license - for non-commercial use only

Gurobi 8.1.1 (win64, Python) logging started 11/10/19 17:32:41

Academic license - for non-commercial use only

Gurobi 8.1.1 (win64, Python) logging started 11/10/19 17:32:56

Academic license - for non-commercial use only

Gurobi 8.1.1 (win64, Python) logging started 11/10/19 17:34:44

Academic license - for non-commercial use only

Gurobi 8.1.1 (win64, Python) logging started 11/10/19 17:36:05

Academic license - for non-commercial use only

Gurobi 8.1.1 (win64, Python) logging started 11/10/19 17:37:31

Academic license - for non-commercial use only

Gurobi 8.1.1 (win64, Python) logging started 11/10/19 17:37:49

Academic license - for non-commercial use only

Gurobi 8.1.1 (win64, Python) logging started 11/10/19 17:39:59

Academic license - for non-commercial use only

Gurobi 8.1.1 (win64, Python) logging started 11/10/19 17:40:55

Academic license - for non-commercial use only

Gurobi 8.1.1 (win64, Python) logging started 11/10/19 17:41:54

Academic license - for non-commercial use only

Gurobi 8.1.1 (win64, Python) logging started 11/10/19 17:45:45

Academic license - for non-commercial use only

Gurobi 8.1.1 (win64, Python) logging started 11/10/19 17:46:04

Academic license - for non-commercial use only

Gurobi 8.1.1 (win64, Python) logging started 11/10/19 17:47:38

Academic license - for non-commercial use only

Gurobi 8.1.1 (win64, Python) logging started 11/10/19 17:47:59

Academic license - for non-commercial use only

Gurobi 8.1.1 (win64, Python) logging started 11/10/19 17:48:36

Academic license - for non-commercial use only

Gurobi 8.1.1 (win64, Python) logging started 11/10/19 18:00:47

Academic license - for non-commercial use only

Gurobi 8.1.1 (win64, Python) logging started 11/10/19 18:01:43

Academic license - for non-commercial use only

Gurobi 8.1.1 (win64, Python) logging started 11/10/19 18:02:20

Academic license - for non-commercial use only

Gurobi 8.1.1 (win64, Python) logging started 11/10/19 18:02:37

Academic license - for non-commercial use only

Gurobi 8.1.1 (win64, Python) logging started 11/10/19 18:02:57

Academic license - for non-commercial use only

Gurobi 8.1.1 (win64, Python) logging started 11/10/19 18:05:10

Academic license - for non-commercial use only

Gurobi 8.1.1 (win64, Python) logging started 11/10/19 18:11:48

Academic license - for non-commercial use only

Gurobi 8.1.1 (win64, Python) logging started 11/10/19 18:12:38

Academic license - for non-commercial use only

Gurobi 8.1.1 (win64, Python) logging started 11/10/19 18:15:16

Academic license - for non-commercial use only

Gurobi 8.1.1 (win64, Python) logging started 11/10/19 18:15:59

Academic license - for non-commercial use only

Gurobi 8.1.1 (win64, Python) logging started 11/10/19 18:27:29

Academic license - for non-commercial use only

Gurobi 8.1.1 (win64, Python) logging started 11/11/19 09:49:09

Academic license - for non-commercial use only

Gurobi 8.1.1 (win64, Python) logging started 11/11/19 09:51:13

Academic license - for non-commercial use only

Gurobi 8.1.1 (win64, Python) logging started 11/11/19 16:40:04

Academic license - for non-commercial use only

Gurobi 8.1.1 (win64, Python) logging started 11/11/19 16:42:11

Academic license - for non-commercial use only

Gurobi 8.1.1 (win64, Python) logging started 11/11/19 16:42:32

Academic license - for non-commercial use only

Gurobi 8.1.1 (win64, Python) logging started 11/11/19 16:45:53

Academic license - for non-commercial use only

Gurobi 8.1.1 (win64, Python) logging started 11/11/19 16:52:42

Academic license - for non-commercial use only

Gurobi 8.1.1 (win64, Python) logging started 11/11/19 16:53:29

Academic license - for non-commercial use only

Gurobi 8.1.1 (win64, Python) logging started 11/11/19 16:54:27

Academic license - for non-commercial use only

Gurobi 8.1.1 (win64, Python) logging started 11/11/19 16:56:04

Academic license - for non-commercial use only

Gurobi 8.1.1 (win64, Python) logging started 11/11/19 16:56:41

Academic license - for non-commercial use only

Gurobi 8.1.1 (win64, Python) logging started 11/11/19 16:59:37

Academic license - for non-commercial use only

Gurobi 8.1.1 (win64, Python) logging started 11/11/19 17:01:56

Academic license - for non-commercial use only

Gurobi 8.1.1 (win64, Python) logging started 11/11/19 17:03:29

Academic license - for non-commercial use only

Gurobi 8.1.1 (win64, Python) logging started 11/11/19 17:06:39

Academic license - for non-commercial use only

Gurobi 8.1.1 (win64, Python) logging started 11/11/19 17:12:17

Academic license - for non-commercial use only

Gurobi 8.1.1 (win64, Python) logging started 11/11/19 17:12:49

Academic license - for non-commercial use only

Gurobi 8.1.1 (win64, Python) logging started 11/11/19 17:13:26

Academic license - for non-commercial use only

Gurobi 8.1.1 (win64, Python) logging started 11/11/19 17:14:30

Academic license - for non-commercial use only

Gurobi 8.1.1 (win64, Python) logging started 11/11/19 17:16:13

Academic license - for non-commercial use only

Gurobi 8.1.1 (win64, Python) logging started 11/11/19 17:18:31

Academic license - for non-commercial use only

Gurobi 8.1.1 (win64, Python) logging started 11/11/19 17:19:38

Academic license - for non-commercial use only

Gurobi 8.1.1 (win64, Python) logging started 11/11/19 17:20:35

Academic license - for non-commercial use only

Gurobi 8.1.1 (win64, Python) logging started 11/11/19 17:26:43

Academic license - for non-commercial use only

Gurobi 8.1.1 (win64, Python) logging started 11/11/19 17:28:30

Academic license - for non-commercial use only

Gurobi 8.1.1 (win64, Python) logging started 11/11/19 17:29:40

Academic license - for non-commercial use only

Gurobi 8.1.1 (win64, Python) logging started 11/11/19 17:30:40

Academic license - for non-commercial use only

Gurobi 8.1.1 (win64, Python) logging started 11/11/19 17:31:49

Academic license - for non-commercial use only

Gurobi 8.1.1 (win64, Python) logging started 11/11/19 17:32:15

Academic license - for non-commercial use only

Gurobi 8.1.1 (win64, Python) logging started 11/11/19 17:33:08

Academic license - for non-commercial use only

Gurobi 8.1.1 (win64, Python) logging started 11/11/19 17:34:26

Academic license - for non-commercial use only

Gurobi 8.1.1 (win64, Python) logging started 11/16/19 16:10:44

Academic license - for non-commercial use only

Gurobi 8.1.1 (win64, Python) logging started 11/16/19 16:12:53

Academic license - for non-commercial use only

Gurobi 8.1.1 (win64, Python) logging started 11/16/19 16:32:30

Academic license - for non-commercial use only

Gurobi 8.1.1 (win64, Python) logging started 11/16/19 17:07:18

Academic license - for non-commercial use only

Gurobi 8.1.1 (win64, Python) logging started 11/16/19 17:21:40

Academic license - for non-commercial use only

Gurobi 8.1.1 (win64, Python) logging started 11/16/19 17:25:10

Academic license - for non-commercial use only

Gurobi 8.1.1 (win64, Python) logging started 11/16/19 17:27:54

Academic license - for non-commercial use only

Gurobi 8.1.1 (win64, Python) logging started 11/16/19 17:30:35

Academic license - for non-commercial use only

Gurobi 8.1.1 (win64, Python) logging started 11/16/19 17:38:14

Academic license - for non-commercial use only

Gurobi 8.1.1 (win64, Python) logging started 11/16/19 18:28:37

Academic license - for non-commercial use only

Gurobi 8.1.1 (win64, Python) logging started 11/16/19 18:53:00

Academic license - for non-commercial use only

Gurobi 8.1.1 (win64, Python) logging started 11/16/19 18:53:37

Academic license - for non-commercial use only

Gurobi 8.1.1 (win64, Python) logging started 11/18/19 08:12:03

Academic license - for non-commercial use only

Gurobi 8.1.1 (win64, Python) logging started 11/18/19 18:24:30

Academic license - for non-commercial use only

Gurobi 8.1.1 (win64, Python) logging started 11/18/19 18:26:47

Academic license - for non-commercial use only

Gurobi 8.1.1 (win64, Python) logging started 11/18/19 18:30:20

Academic license - for non-commercial use only

Gurobi 8.1.1 (win64, Python) logging started 11/18/19 21:48:04

Academic license - for non-commercial use only

Gurobi 8.1.1 (win64, Python) logging started 11/18/19 21:50:21

Academic license - for non-commercial use only

Gurobi 8.1.1 (win64, Python) logging started 12/16/19 18:59:09

Academic license - for non-commercial use only

Gurobi 8.1.1 (win64, Python) logging started 12/16/19 19:00:05

Academic license - for non-commercial use only

Gurobi 8.1.1 (win64, Python) logging started 12/16/19 19:00:26

Academic license - for non-commercial use only

Gurobi 8.1.1 (win64, Python) logging started 12/16/19 19:00:39

Academic license - for non-commercial use only

Gurobi 8.1.1 (win64, Python) logging started 12/16/19 19:02:54

Academic license - for non-commercial use only

Gurobi 8.1.1 (win64, Python) logging started 12/16/19 19:05:17

Academic license - for non-commercial use only

Gurobi 8.1.1 (win64, Python) logging started 12/16/19 19:07:11

Academic license - for non-commercial use only

Gurobi 8.1.1 (win64, Python) logging started 12/16/19 19:09:20

Academic license - for non-commercial use only

Gurobi 8.1.1 (win64, Python) logging started 12/16/19 19:09:34

Academic license - for non-commercial use only

Gurobi 8.1.1 (win64, Python) logging started 12/16/19 19:10:08

Academic license - for non-commercial use only

Gurobi 8.1.1 (win64, Python) logging started 12/16/19 19:10:23

Academic license - for non-commercial use only

Gurobi 8.1.1 (win64, Python) logging started 12/16/19 19:19:07

Academic license - for non-commercial use only

Gurobi 8.1.1 (win64, Python) logging started 12/16/19 19:26:25

Academic license - for non-commercial use only

Gurobi 8.1.1 (win64, Python) logging started 12/16/19 19:27:34

Academic license - for non-commercial use only

Gurobi 8.1.1 (win64, Python) logging started 12/16/19 19:29:56

Academic license - for non-commercial use only

Gurobi 8.1.1 (win64, Python) logging started 12/16/19 19:31:51

Academic license - for non-commercial use only

Gurobi 8.1.1 (win64, Python) logging started 12/16/19 19:32:04

Academic license - for non-commercial use only

Gurobi 8.1.1 (win64, Python) logging started 12/16/19 19:32:39

Academic license - for non-commercial use only

Gurobi 8.1.1 (win64, Python) logging started 12/16/19 19:32:52

Academic license - for non-commercial use only

Gurobi 8.1.1 (win64, Python) logging started 12/16/19 19:34:51

Academic license - for non-commercial use only

Gurobi 8.1.1 (win64, Python) logging started 12/16/19 19:37:41

Academic license - for non-commercial use only

Gurobi 8.1.1 (win64, Python) logging started 12/16/19 19:37:58

Academic license - for non-commercial use only

Gurobi 8.1.1 (win64, Python) logging started 12/16/19 19:40:10

Academic license - for non-commercial use only

Gurobi 8.1.1 (win64, Python) logging started 12/16/19 19:41:12

Academic license - for non-commercial use only

Gurobi 8.1.1 (win64, Python) logging started 12/16/19 19:44:16

Academic license - for non-commercial use only

Gurobi 8.1.1 (win64, Python) logging started 12/16/19 19:44:25

Academic license - for non-commercial use only

Gurobi 8.1.1 (win64, Python) logging started 12/16/19 19:44:45

Academic license - for non-commercial use only

Gurobi 8.1.1 (win64, Python) logging started 12/16/19 19:45:14

Academic license - for non-commercial use only

Gurobi 8.1.1 (win64, Python) logging started 12/16/19 19:45:37

Academic license - for non-commercial use only

Gurobi 8.1.1 (win64, Python) logging started 12/16/19 19:52:36

Academic license - for non-commercial use only

Gurobi 8.1.1 (win64, Python) logging started 12/16/19 19:55:17

Academic license - for non-commercial use only

Gurobi 8.1.1 (win64, Python) logging started 12/16/19 19:55:32

Academic license - for non-commercial use only

Gurobi 8.1.1 (win64, Python) logging started 12/16/19 19:55:40

Academic license - for non-commercial use only

Gurobi 8.1.1 (win64, Python) logging started 12/16/19 19:56:27

Academic license - for non-commercial use only

Gurobi 8.1.1 (win64, Python) logging started 12/16/19 19:58:01

Academic license - for non-commercial use only

Gurobi 8.1.1 (win64, Python) logging started 12/16/19 20:00:37

Academic license - for non-commercial use only

Gurobi 8.1.1 (win64, Python) logging started 12/16/19 20:01:03

Academic license - for non-commercial use only

Gurobi 8.1.1 (win64, Python) logging started 12/16/19 20:05:28

Academic license - for non-commercial use only

Gurobi 8.1.1 (win64, Python) logging started 12/16/19 20:06:00

Academic license - for non-commercial use only

Gurobi 8.1.1 (win64, Python) logging started 12/16/19 20:08:59

Academic license - for non-commercial use only

Gurobi 8.1.1 (win64, Python) logging started 12/16/19 20:09:50

Academic license - for non-commercial use only

Gurobi 8.1.1 (win64, Python) logging started 12/16/19 20:10:49

Academic license - for non-commercial use only

Gurobi 8.1.1 (win64, Python) logging started 12/16/19 20:11:22

Academic license - for non-commercial use only

Gurobi 8.1.1 (win64, Python) logging started 12/16/19 20:11:42

Academic license - for non-commercial use only

Gurobi 8.1.1 (win64, Python) logging started 12/16/19 20:12:08

Academic license - for non-commercial use only

Gurobi 8.1.1 (win64, Python) logging started 12/16/19 20:29:15

Academic license - for non-commercial use only

Gurobi 8.1.1 (win64, Python) logging started 12/16/19 21:12:40

Academic license - for non-commercial use only

Gurobi 8.1.1 (win64, Python) logging started 12/16/19 21:12:50

Academic license - for non-commercial use only

Gurobi 8.1.1 (win64, Python) logging started 12/16/19 21:14:44

Academic license - for non-commercial use only

Gurobi 8.1.1 (win64, Python) logging started 12/16/19 21:16:56

Academic license - for non-commercial use only

Gurobi 8.1.1 (win64, Python) logging started 12/16/19 21:18:27

Academic license - for non-commercial use only

Gurobi 8.1.1 (win64, Python) logging started 12/16/19 21:25:33

Academic license - for non-commercial use only

Gurobi 8.1.1 (win64, Python) logging started 12/16/19 21:26:11

Academic license - for non-commercial use only

Gurobi 8.1.1 (win64, Python) logging started 12/16/19 21:28:35

Academic license - for non-commercial use only

Gurobi 8.1.1 (win64, Python) logging started 12/16/19 21:31:44

Academic license - for non-commercial use only

Gurobi 8.1.1 (win64, Python) logging started 12/16/19 21:32:51

Academic license - for non-commercial use only

Gurobi 8.1.1 (win64, Python) logging started 12/16/19 21:34:00

Academic license - for non-commercial use only

Gurobi 8.1.1 (win64, Python) logging started 12/16/19 21:34:59

Academic license - for non-commercial use only

Gurobi 8.1.1 (win64, Python) logging started 12/16/19 21:36:21

Academic license - for non-commercial use only

Gurobi 8.1.1 (win64, Python) logging started 12/16/19 21:41:23

Academic license - for non-commercial use only

Gurobi 8.1.1 (win64, Python) logging started 12/16/19 21:53:12

Academic license - for non-commercial use only

Gurobi 8.1.1 (win64, Python) logging started 12/16/19 21:53:27

Academic license - for non-commercial use only

Gurobi 8.1.1 (win64, Python) logging started 12/16/19 21:55:09

Academic license - for non-commercial use only

Gurobi 8.1.1 (win64, Python) logging started 12/16/19 21:56:02

Academic license - for non-commercial use only

Gurobi 8.1.1 (win64, Python) logging started 12/16/19 21:58:04

Academic license - for non-commercial use only

Gurobi 8.1.1 (win64, Python) logging started 12/16/19 21:59:01

Academic license - for non-commercial use only

Gurobi 8.1.1 (win64, Python) logging started 12/16/19 21:59:48

Academic license - for non-commercial use only

Gurobi 8.1.1 (win64, Python) logging started 12/16/19 22:41:28

Academic license - for non-commercial use only

Gurobi 8.1.1 (win64, Python) logging started 12/16/19 22:43:38

Academic license - for non-commercial use only

Gurobi 8.1.1 (win64, Python) logging started 12/16/19 22:44:08

Academic license - for non-commercial use only

Gurobi 8.1.1 (win64, Python) logging started 12/16/19 22:44:16

Academic license - for non-commercial use only

Gurobi 8.1.1 (win64, Python) logging started 12/16/19 22:45:56

Academic license - for non-commercial use only

Gurobi 8.1.1 (win64, Python) logging started 12/16/19 22:46:54

Academic license - for non-commercial use only

Gurobi 8.1.1 (win64, Python) logging started 12/16/19 22:48:02

Academic license - for non-commercial use only

Gurobi 8.1.1 (win64, Python) logging started 12/16/19 22:49:02

Academic license - for non-commercial use only

Gurobi 8.1.1 (win64, Python) logging started 12/16/19 22:49:48

Academic license - for non-commercial use only

Gurobi 8.1.1 (win64, Python) logging started 12/16/19 22:53:12

Academic license - for non-commercial use only

Gurobi 8.1.1 (win64, Python) logging started 12/18/19 15:04:29

Academic license - for non-commercial use only

Gurobi 8.1.1 (win64, Python) logging started 12/18/19 15:11:58

Academic license - for non-commercial use only

Gurobi 8.1.1 (win64, Python) logging started 12/18/19 15:19:00

Academic license - for non-commercial use only

Gurobi 8.1.1 (win64, Python) logging started 12/18/19 15:22:07

Academic license - for non-commercial use only

Gurobi 8.1.1 (win64, Python) logging started 12/18/19 15:23:09

Academic license - for non-commercial use only

Gurobi 8.1.1 (win64, Python) logging started 12/18/19 15:24:35

Academic license - for non-commercial use only

Gurobi 8.1.1 (win64, Python) logging started 12/18/19 17:42:44

Academic license - for non-commercial use only

Gurobi 8.1.1 (win64, Python) logging started 12/18/19 17:43:58

Academic license - for non-commercial use only

Gurobi 8.1.1 (win64, Python) logging started 12/19/19 22:35:30

Academic license - for non-commercial use only

Gurobi 8.1.1 (win64, Python) logging started 12/19/19 22:36:06

Academic license - for non-commercial use only

Gurobi 8.1.1 (win64, Python) logging started 12/19/19 22:37:29

Academic license - for non-commercial use only

Gurobi 8.1.1 (win64, Python) logging started 12/19/19 22:39:07

Academic license - for non-commercial use only

Gurobi 8.1.1 (win64, Python) logging started 12/19/19 22:40:49

Academic license - for non-commercial use only

Gurobi 8.1.1 (win64, Python) logging started 12/19/19 22:41:41

Academic license - for non-commercial use only

Gurobi 8.1.1 (win64, Python) logging started 12/19/19 22:44:20

Academic license - for non-commercial use only

Gurobi 8.1.1 (win64, Python) logging started 12/20/19 20:43:27

Academic license - for non-commercial use only

Gurobi 8.1.1 (win64, Python) logging started 12/20/19 20:45:00

Academic license - for non-commercial use only

Gurobi 8.1.1 (win64, Python) logging started 12/20/19 20:46:20

Academic license - for non-commercial use only

Gurobi 8.1.1 (win64, Python) logging started 12/20/19 20:47:00

Academic license - for non-commercial use only

Gurobi 8.1.1 (win64, Python) logging started 12/20/19 20:48:11

Academic license - for non-commercial use only

Gurobi 8.1.1 (win64, Python) logging started 12/20/19 20:49:10

Academic license - for non-commercial use only

Gurobi 8.1.1 (win64, Python) logging started 12/20/19 20:50:08

Academic license - for non-commercial use only

Gurobi 8.1.1 (win64, Python) logging started 12/20/19 20:54:26

Academic license - for non-commercial use only

Gurobi 8.1.1 (win64, Python) logging started 12/20/19 20:55:29

Academic license - for non-commercial use only

Gurobi 8.1.1 (win64, Python) logging started 12/20/19 21:00:09

Academic license - for non-commercial use only

Gurobi 8.1.1 (win64, Python) logging started 12/20/19 21:02:42

Academic license - for non-commercial use only

Gurobi 8.1.1 (win64, Python) logging started 01/20/20 14:31:42

Academic license - for non-commercial use only

Gurobi 8.1.1 (win64, Python) logging started 01/20/20 14:32:42

Academic license - for non-commercial use only
